c CNF file corresponding to a (partial) station packing problem.
p cnf 3860 229
1 2 3 4 5 6 7 8 9 10 11 12 13 14 0
-1 -2 0
-1 -3 0
-1 -4 0
-1 -5 0
-1 -6 0
-1 -7 0
-1 -8 0
-1 -9 0
-1 -10 0
-1 -11 0
-1 -12 0
-1 -13 0
-1 -14 0
-2 -3 0
-2 -4 0
-2 -5 0
-2 -6 0
-2 -7 0
-2 -8 0
-2 -9 0
-2 -10 0
-2 -11 0
-2 -12 0
-2 -13 0
-2 -14 0
-3 -4 0
-3 -5 0
-3 -6 0
-3 -7 0
-3 -8 0
-3 -9 0
-3 -10 0
-3 -11 0
-3 -12 0
-3 -13 0
-3 -14 0
-4 -5 0
-4 -6 0
-4 -7 0
-4 -8 0
-4 -9 0
-4 -10 0
-4 -11 0
-4 -12 0
-4 -13 0
-4 -14 0
-5 -6 0
-5 -7 0
-5 -8 0
-5 -9 0
-5 -10 0
-5 -11 0
-5 -12 0
-5 -13 0
-5 -14 0
-6 -7 0
-6 -8 0
-6 -9 0
-6 -10 0
-6 -11 0
-6 -12 0
-6 -13 0
-6 -14 0
-7 -8 0
-7 -9 0
-7 -10 0
-7 -11 0
-7 -12 0
-7 -13 0
-7 -14 0
-8 -9 0
-8 -10 0
-8 -11 0
-8 -12 0
-8 -13 0
-8 -14 0
-9 -10 0
-9 -11 0
-9 -12 0
-9 -13 0
-9 -14 0
-10 -11 0
-10 -12 0
-10 -13 0
-10 -14 0
-11 -12 0
-11 -13 0
-11 -14 0
-12 -13 0
-12 -14 0
-13 -14 0
3844 3845 3846 3847 3848 3849 3850 3851 3852 3853 3854 3855 3856 3857 3858 3859 3860 0
-3844 -3845 0
-3844 -3846 0
-3844 -3847 0
-3844 -3848 0
-3844 -3849 0
-3844 -3850 0
-3844 -3851 0
-3844 -3852 0
-3844 -3853 0
-3844 -3854 0
-3844 -3855 0
-3844 -3856 0
-3844 -3857 0
-3844 -3858 0
-3844 -3859 0
-3844 -3860 0
-3845 -3846 0
-3845 -3847 0
-3845 -3848 0
-3845 -3849 0
-3845 -3850 0
-3845 -3851 0
-3845 -3852 0
-3845 -3853 0
-3845 -3854 0
-3845 -3855 0
-3845 -3856 0
-3845 -3857 0
-3845 -3858 0
-3845 -3859 0
-3845 -3860 0
-3846 -3847 0
-3846 -3848 0
-3846 -3849 0
-3846 -3850 0
-3846 -3851 0
-3846 -3852 0
-3846 -3853 0
-3846 -3854 0
-3846 -3855 0
-3846 -3856 0
-3846 -3857 0
-3846 -3858 0
-3846 -3859 0
-3846 -3860 0
-3847 -3848 0
-3847 -3849 0
-3847 -3850 0
-3847 -3851 0
-3847 -3852 0
-3847 -3853 0
-3847 -3854 0
-3847 -3855 0
-3847 -3856 0
-3847 -3857 0
-3847 -3858 0
-3847 -3859 0
-3847 -3860 0
-3848 -3849 0
-3848 -3850 0
-3848 -3851 0
-3848 -3852 0
-3848 -3853 0
-3848 -3854 0
-3848 -3855 0
-3848 -3856 0
-3848 -3857 0
-3848 -3858 0
-3848 -3859 0
-3848 -3860 0
-3849 -3850 0
-3849 -3851 0
-3849 -3852 0
-3849 -3853 0
-3849 -3854 0
-3849 -3855 0
-3849 -3856 0
-3849 -3857 0
-3849 -3858 0
-3849 -3859 0
-3849 -3860 0
-3850 -3851 0
-3850 -3852 0
-3850 -3853 0
-3850 -3854 0
-3850 -3855 0
-3850 -3856 0
-3850 -3857 0
-3850 -3858 0
-3850 -3859 0
-3850 -3860 0
-3851 -3852 0
-3851 -3853 0
-3851 -3854 0
-3851 -3855 0
-3851 -3856 0
-3851 -3857 0
-3851 -3858 0
-3851 -3859 0
-3851 -3860 0
-3852 -3853 0
-3852 -3854 0
-3852 -3855 0
-3852 -3856 0
-3852 -3857 0
-3852 -3858 0
-3852 -3859 0
-3852 -3860 0
-3853 -3854 0
-3853 -3855 0
-3853 -3856 0
-3853 -3857 0
-3853 -3858 0
-3853 -3859 0
-3853 -3860 0
-3854 -3855 0
-3854 -3856 0
-3854 -3857 0
-3854 -3858 0
-3854 -3859 0
-3854 -3860 0
-3855 -3856 0
-3855 -3857 0
-3855 -3858 0
-3855 -3859 0
-3855 -3860 0
-3856 -3857 0
-3856 -3858 0
-3856 -3859 0
-3856 -3860 0
-3857 -3858 0
-3857 -3859 0
-3857 -3860 0
-3858 -3859 0
-3858 -3860 0
-3859 -3860 0
